p edge 100 496
e 1 4
e 1 14
e 1 18
e 1 19
e 1 27
e 1 42
e 1 54
e 1 64
e 1 69
e 1 70
e 1 74
e 1 82
e 2 9
e 2 18
e 2 24
e 2 29
e 2 33
e 2 39
e 2 40
e 2 43
e 2 67
e 2 85
e 2 89
e 2 90
e 3 8
e 3 18
e 3 23
e 3 43
e 3 53
e 3 74
e 3 78
e 3 81
e 3 92
e 4 7
e 4 9
e 4 27
e 4 66
e 4 76
e 4 93
e 5 27
e 5 42
e 5 45
e 5 47
e 5 64
e 5 65
e 5 68
e 5 81
e 5 82
e 5 92
e 5 99
e 6 9
e 6 16
e 6 17
e 6 20
e 6 29
e 6 52
e 6 74
e 6 89
e 6 92
e 7 11
e 7 12
e 7 22
e 7 28
e 7 66
e 7 68
e 7 73
e 7 74
e 7 77
e 7 90
e 8 16
e 8 45
e 8 53
e 8 64
e 8 65
e 8 86
e 8 91
e 8 98
e 9 17
e 9 22
e 9 24
e 9 53
e 9 70
e 9 76
e 9 84
e 9 86
e 9 90
e 9 95
e 10 23
e 10 44
e 10 52
e 10 57
e 10 63
e 10 70
e 10 71
e 10 74
e 10 75
e 10 80
e 10 82
e 10 94
e 10 97
e 10 100
e 11 13
e 11 14
e 11 28
e 11 33
e 11 55
e 11 57
e 11 70
e 11 92
e 11 96
e 12 20
e 12 51
e 12 58
e 12 62
e 12 64
e 12 71
e 12 85
e 12 100
e 13 16
e 13 17
e 13 27
e 13 33
e 13 40
e 13 43
e 13 50
e 13 66
e 13 85
e 13 88
e 14 37
e 14 47
e 14 56
e 14 74
e 14 79
e 15 21
e 15 24
e 15 27
e 15 35
e 15 51
e 15 56
e 15 60
e 15 61
e 15 67
e 15 68
e 15 79
e 15 97
e 16 39
e 16 54
e 16 66
e 16 69
e 16 79
e 16 81
e 16 84
e 16 89
e 16 92
e 16 98
e 17 20
e 17 31
e 17 48
e 17 54
e 17 59
e 17 77
e 17 79
e 17 86
e 17 91
e 17 96
e 18 24
e 18 45
e 18 57
e 18 61
e 18 62
e 18 67
e 18 77
e 18 89
e 19 22
e 19 23
e 19 42
e 19 52
e 19 59
e 19 62
e 19 63
e 19 79
e 20 29
e 20 36
e 20 45
e 20 70
e 20 79
e 20 95
e 20 98
e 21 29
e 21 39
e 21 53
e 22 37
e 22 48
e 22 60
e 22 81
e 22 84
e 22 86
e 22 92
e 23 25
e 23 38
e 23 43
e 23 47
e 23 50
e 23 53
e 23 84
e 23 97
e 23 98
e 24 43
e 24 80
e 24 86
e 24 92
e 25 34
e 25 41
e 25 43
e 25 51
e 25 54
e 25 57
e 25 62
e 25 74
e 25 84
e 26 40
e 26 54
e 26 57
e 26 61
e 26 63
e 26 74
e 26 92
e 27 29
e 27 36
e 27 37
e 27 58
e 27 61
e 27 79
e 27 84
e 27 92
e 28 31
e 28 37
e 28 46
e 28 50
e 28 78
e 29 42
e 29 59
e 29 60
e 29 79
e 29 89
e 30 56
e 30 77
e 30 82
e 30 83
e 30 98
e 31 34
e 31 39
e 31 60
e 31 72
e 31 89
e 32 50
e 32 59
e 32 92
e 32 93
e 33 44
e 33 49
e 33 78
e 33 99
e 34 44
e 34 52
e 34 57
e 34 62
e 34 65
e 34 76
e 34 77
e 35 37
e 35 38
e 35 39
e 35 40
e 35 49
e 35 57
e 35 63
e 35 69
e 35 83
e 35 91
e 35 94
e 35 96
e 36 37
e 36 73
e 36 84
e 36 86
e 36 99
e 37 57
e 37 60
e 37 61
e 37 70
e 37 74
e 37 82
e 37 85
e 37 96
e 38 51
e 38 59
e 38 70
e 38 79
e 38 89
e 38 94
e 38 99
e 39 48
e 39 51
e 39 59
e 39 70
e 39 79
e 39 94
e 40 41
e 40 61
e 40 84
e 40 87
e 40 97
e 40 100
e 41 43
e 41 44
e 41 51
e 41 58
e 41 65
e 41 70
e 41 73
e 41 77
e 41 82
e 41 87
e 41 90
e 41 94
e 42 44
e 42 52
e 42 58
e 42 78
e 42 83
e 42 84
e 42 94
e 43 89
e 44 57
e 44 62
e 44 70
e 44 76
e 44 83
e 44 92
e 45 50
e 45 56
e 45 75
e 45 78
e 45 88
e 45 92
e 45 95
e 46 54
e 46 57
e 46 71
e 46 73
e 46 76
e 46 84
e 46 93
e 46 100
e 47 50
e 47 68
e 47 82
e 47 84
e 47 97
e 48 64
e 48 65
e 48 67
e 48 76
e 48 82
e 48 85
e 48 95
e 49 62
e 49 63
e 49 70
e 49 71
e 49 80
e 49 81
e 49 85
e 49 86
e 49 94
e 50 72
e 50 84
e 50 95
e 50 99
e 50 100
e 51 53
e 51 56
e 51 61
e 51 63
e 51 66
e 52 60
e 52 67
e 52 72
e 52 83
e 53 72
e 53 78
e 54 56
e 54 83
e 54 84
e 54 93
e 54 94
e 54 100
e 55 59
e 55 67
e 55 76
e 55 83
e 55 85
e 56 60
e 56 66
e 56 76
e 56 94
e 57 75
e 57 91
e 57 96
e 57 98
e 58 62
e 58 74
e 58 84
e 58 88
e 58 91
e 58 92
e 58 100
e 59 61
e 59 73
e 59 74
e 59 77
e 59 84
e 59 85
e 59 87
e 59 91
e 59 97
e 60 84
e 60 91
e 60 93
e 61 64
e 61 68
e 61 77
e 61 81
e 61 90
e 62 65
e 62 73
e 62 86
e 62 95
e 63 69
e 63 71
e 64 71
e 64 82
e 64 92
e 64 97
e 64 100
e 65 75
e 65 77
e 65 78
e 65 95
e 65 97
e 66 84
e 67 77
e 67 80
e 67 82
e 67 87
e 68 81
e 68 91
e 68 93
e 69 100
e 70 91
e 71 80
e 72 75
e 72 85
e 72 87
e 73 81
e 75 81
e 75 84
e 75 87
e 75 88
e 77 79
e 77 93
e 78 80
e 78 92
e 79 80
e 79 96
e 80 97
e 81 92
e 81 97
e 82 92
e 84 89
e 84 95
e 87 91
e 87 93
e 87 95
e 88 91
e 89 90
e 89 98
e 89 100
e 90 94
e 90 95
e 93 99
e 94 95
e 94 97
e 96 98
e 97 100
